c random clauses
p cnf 20 32
-20 -18 -8 -7 -4 -1 2 14 0
-20 -17 -11 -5 -2 8 14 18 0
-20 -17 1 3 4 11 13 16 0
-20 -16 -10 -2 1 4 5 13 0
-20 -16 -10 5 8 12 13 19 0
-20 -15 -9 -4 -2 8 14 18 0
-20 -15 -5 3 4 7 11 12 0
-20 -14 -13 -12 -10 -7 -3 8 0
-20 -13 -10 -3 -2 5 8 11 0
-20 -12 2 3 11 16 17 19 0
-19 -18 -14 -5 -4 8 15 20 0
-19 -16 -10 -4 1 5 6 15 0
-19 -15 -8 -3 -1 2 5 16 0
-19 -12 -7 3 4 15 18 20 0
-18 -17 -8 -3 4 7 11 20 0
-18 -16 -12 -2 1 3 7 10 0
-17 -14 -9 -2 3 8 13 20 0
-17 -13 -12 2 3 8 18 19 0
-17 -11 -10 3 4 6 7 14 0
-17 -10 -9 -7 -6 1 3 15 0
-16 -15 1 4 7 11 12 13 0
-16 -13 -10 -7 -5 3 11 15 0
-16 -13 -3 -2 -1 7 8 15 0
-15 -13 -10 -9 -8 -5 -2 11 0
-15 -13 -5 -3 -2 6 17 18 0
-15 -1 3 7 10 14 16 19 0
-14 -13 -8 5 7 9 15 19 0
-14 -11 -7 2 3 6 8 17 0
-13 -8 -1 2 5 7 15 17 0
-12 -9 -7 -6 -5 -3 -1 17 0
-12 -7 -5 -3 -1 2 6 18 0
-9 -5 -3 1 8 15 19 20 0
